benchmarks/bfuzz0/2625086523194191372699913330362120317.smt2
(set-logic QF_FP)
(declare-const x0 (_ FloatingPoint 11 53))
(declare-const x1 (_ FloatingPoint 11 53))
(declare-const x2 (_ FloatingPoint 11 53))
(assert (fp.leq (fp.add RNE (fp.div RNE (fp.mul RNE (fp.mul RNE x2 x0) (fp.sub RNE x2 x1)) (fp.div RNE (fp.neg x2) (fp.neg x1))) (fp.sub RNE (fp.neg (fp.add RNE x1 x1)) (fp.add RNE (fp.div RNE x0 x0) (fp.mul RNE x2 x2)))) (fp.div RNE (fp.add RNE (fp.neg (fp.div RNE x1 x0)) (fp.neg (fp.div RNE x1 x0))) (fp.mul RNE (fp.div RNE (fp.sub RNE x0 x1) (fp.add RNE x2 x2)) (fp.mul RNE (fp.add RNE x1 x2) (fp.neg x0))))))
(check-sat)
