db/data/2625086523194191372699913330362120317.z3.out
-------------------
2500.171662129
